p cnf 838 2143
c ind 830 833 752 817 818 768 835 764 765 785 0
c ind 799 786 804 773 812 831 836 819 828 829 0
c ind 758 832 753 757 755 802 815 754 767 800 0
c ind 801 816 756 805 814 803 834 811 806 813 0
c ind 821 822 796 797 793 808 823 826 789 825 0
c ind 792 820 798 794 810 781 790 827 791 795 0
c ind 776 772 807 809 824 780 774 759 763 779 0
c ind 769 787 766 784 761 783 782 771 775 762 0
c ind 760 777 778 770 788 1 0
c ret 500 630 631 632 633 634 635 636 501 637 0
c ret 638 639 640 641 642 542 643 543 644 645 0
c ret 646 647 502 648 649 544 650 651 652 653 0
c ret 654 503 655 656 657 658 659 660 545 661 0
c ret 546 662 663 664 665 666 504 667 668 669 0
c ret 670 671 672 673 674 675 676 505 506 547 0
c ret 507 677 678 679 680 548 681 682 683 549 0
c ret 684 685 686 687 688 689 508 550 690 691 0
c ret 692 693 694 695 509 696 697 698 699 700 0
c ret 492 510 701 702 703 704 511 705 706 707 0
c ret 551 552 708 553 709 710 512 711 712 713 0
c ret 714 715 716 717 718 719 720 513 721 722 0
c ret 723 724 554 725 726 727 728 729 730 731 0
c ret 732 733 514 734 555 735 736 737 738 739 0
c ret 740 741 515 742 743 744 745 746 747 556 0
c ret 748 749 750 751 516 557 558 493 517 518 0
c ret 559 560 561 562 519 563 564 565 520 566 0
c ret 521 567 568 569 522 570 523 571 572 573 0
c ret 494 524 574 575 576 525 577 578 579 580 0
c ret 581 526 582 527 528 583 529 495 530 584 0
c ret 585 531 586 532 533 587 588 534 589 590 0
c ret 535 496 591 592 593 594 595 596 597 598 0
c ret 599 497 600 601 602 603 604 605 606 607 0
c ret 608 609 610 536 611 498 537 612 613 538 0
c ret 614 615 539 616 617 618 619 620 499 621 0
c ret 622 540 623 624 541 625 626 627 628 629 0
2 3 -227 -686 0
2 3 -201 -227 0
-2 227 0
-2 -3 0
-2 201 686 0
3 4 -496 0
3 -63 189 0
3 189 -496 0
3 4 -63 0
-3 63 496 0
-3 -4 -189 0
4 -5 -61 62 651 0
-4 -651 0
-4 -62 0
-4 61 0
-4 5 0
5 -6 -9 0
5 -9 -652 0
-5 9 0
-5 6 652 0
6 -7 -8 0
-6 7 0
-6 8 0
7 506 521 0
-7 -506 0
-7 -521 0
8 502 504 0
-8 -502 0
-8 -504 0
9 10 31 -40 0
-9 40 0
-9 -31 0
-9 -10 0
8 10 12 0
10 11 12 0
-10 -12 0
-8 -10 -11 0
11 506 525 0
-11 -506 0
-11 -525 0
12 -26 -502 0
12 13 502 0
-12 -13 502 0
-12 26 -502 0
13 -24 -504 0
13 14 504 0
-13 -14 504 0
-13 24 -504 0
14 -17 -506 0
14 15 506 0
-14 -15 506 0
-14 17 -506 0
15 -524 -545 0
15 -16 -545 0
-15 545 0
-15 16 524 0
16 -517 -518 -546 0
-16 517 0
-16 518 0
-16 546 0
15 17 18 0
17 -18 574 0
-15 -17 18 0
-17 -18 -574 0
18 19 525 0
-18 -525 0
-18 -19 0
19 20 -575 0
-19 575 0
-19 -20 0
20 21 578 0
20 21 579 0
-20 -21 0
-20 -578 -579 0
21 22 -23 525 575 0
-21 23 0
-21 -22 0
-21 -525 0
-21 -575 0
22 526 535 -582 0
-22 582 0
-22 -535 0
-22 -526 0
23 -576 578 579 0
-23 576 0
-23 -579 0
-23 -578 0
24 -25 -599 0
14 24 25 0
-14 -24 25 0
-24 -25 599 0
-11 19 25 0
11 -25 0
-19 -25 0
13 26 27 0
26 -27 625 0
-13 -26 27 0
-26 -27 -625 0
27 -28 -30 0
27 -28 -29 575 0
-27 28 0
-27 30 -575 0
-27 29 30 0
-11 28 504 0
-28 -504 0
11 -28 0
29 504 506 0
-29 -504 0
-29 -506 0
-20 30 575 0
-20 30 525 0
20 -30 0
-30 -525 -575 0
31 -32 -33 0
31 -33 34 -516 0
-31 33 0
-31 32 -34 0
-31 32 516 0
32 -551 552 -553 0
-32 551 0
-32 -552 0
-32 553 0
-8 33 506 0
-33 -506 0
8 -33 0
34 -502 -630 0
34 35 502 0
-34 -502 630 0
-34 -35 502 0
35 -504 607 0
35 -36 504 0
-35 -504 -607 0
-35 36 504 0
36 -506 583 0
36 -37 506 0
-36 -506 -583 0
-36 37 506 0
37 38 39 0
37 38 -538 -539 0
-37 -38 0
-37 -39 538 0
-37 -39 539 0
38 -514 -536 0
38 -514 -537 0
-38 514 0
-38 536 537 0
39 515 -536 -537 0
-39 537 0
-39 536 0
-39 -515 0
40 -48 57 0
40 41 57 0
-40 -57 0
-40 -41 48 0
41 -42 641 0
41 633 641 0
-41 -641 0
-41 42 -633 0
42 -43 502 0
42 -47 -502 0
-42 47 -502 0
-42 43 502 0
43 -44 504 0
43 -46 -504 0
-43 46 -504 0
-43 44 504 0
44 -45 506 0
-44 -506 0
-44 45 0
45 -543 562 0
45 543 561 0
-45 543 -561 0
-45 -543 -562 0
46 585 609 0
-46 -585 0
-46 -609 0
47 610 632 0
-47 -610 0
-47 -632 0
48 -49 -56 0
48 -56 633 0
-48 56 0
-48 49 -633 0
49 -502 633 0
49 -50 502 0
-49 -502 -633 0
-49 50 502 0
50 -504 610 0
50 -51 504 0
-50 -504 -610 0
-50 51 504 0
51 52 506 0
51 52 585 0
-51 -52 0
-51 -506 -585 0
52 53 506 0
-52 -506 0
-52 -53 0
53 -55 532 0
53 -55 -543 0
53 54 -55 0
-53 55 0
-53 -54 -532 543 0
54 562 564 565 -566 0
-54 566 0
-54 -565 0
-54 -562 0
-54 -564 0
55 564 565 0
55 543 562 0
55 562 565 0
55 543 564 0
-55 -562 -564 0
-55 -543 -565 0
-47 56 640 0
-43 56 502 640 0
-56 -640 0
47 -56 -502 0
43 47 -56 0
57 59 642 0
57 58 60 642 0
-57 -642 0
-57 -58 -59 0
-57 -59 -60 0
58 542 543 0
58 530 -543 0
-58 -542 543 0
-58 -530 -543 0
-58 59 -633 0
59 633 644 0
-59 633 -644 0
58 -59 -633 0
-47 60 643 0
-60 -643 0
47 -60 0
-6 -9 61 0
-9 61 -645 0
9 -61 0
6 -61 645 0
62 -645 652 0
-62 645 0
-62 -652 0
63 177 -673 0
63 64 140 177 0
-63 -177 0
-63 -64 673 0
-63 -140 673 0
64 -109 674 0
64 65 -108 674 0
-64 -674 0
-64 -65 109 0
-64 108 109 0
65 -591 -676 0
65 66 -676 0
65 107 -676 0
-65 676 0
-65 -66 -107 591 0
66 -67 75 -76 -98 0
-66 98 0
-66 67 0
-66 76 0
-66 -75 0
67 68 -73 -506 0
67 68 -69 -73 0
-67 73 0
-67 -68 0
-67 69 506 0
11 14 68 0
-11 -68 0
-14 -68 0
69 -70 -71 0
69 -70 72 0
-69 70 0
-69 71 -72 0
32 37 70 0
32 70 516 0
-32 -70 0
-37 -70 -516 0
-53 71 560 0
-71 -560 0
53 -71 0
-45 72 567 0
-72 -567 0
45 -72 0
73 74 -588 0
-7 73 74 0
-73 -74 0
7 -73 588 0
58 74 568 0
-74 -568 0
-58 -74 0
17 75 -506 0
75 -506 -521 571 0
-75 506 0
-17 -75 521 0
-17 -75 -571 0
-70 76 -77 89 -90 0
-76 90 0
70 -76 0
-76 77 0
-76 -89 0
77 -78 87 521 0
77 -78 -85 87 0
-77 78 0
-77 -87 0
-77 85 -521 0
78 -80 -82 -524 0
78 79 -80 -82 0
-78 82 0
-78 80 0
-78 -79 524 0
79 517 -525 0
-79 -517 0
-79 525 0
80 81 515 0
80 81 -514 0
80 81 516 0
-80 -81 0
-80 514 -515 -516 0
81 517 526 0
81 -517 518 0
-81 -517 -518 0
-81 517 -526 0
82 -83 84 -528 0
79 82 -83 84 0
-82 83 0
-82 -84 0
-79 -82 528 0
83 -507 -534 -554 555 0
-83 554 0
-83 -555 0
-83 507 0
-83 534 0
84 -521 556 0
84 -547 556 0
-84 -556 0
-84 521 547 0
85 86 -520 -540 0
85 86 519 -540 0
-85 540 0
-85 -86 0
-85 -519 520 0
86 522 -523 0
86 522 541 0
-86 -522 0
-86 523 -541 0
87 -88 -509 0
87 -509 511 -513 0
-87 509 0
-87 88 -511 0
-87 88 513 0
88 -508 510 -511 512 0
-88 511 0
-88 -512 0
-88 508 0
-88 -510 0
-15 89 -525 0
-89 525 0
15 -89 0
-58 90 -92 -95 0
90 91 -92 -95 0
-90 95 0
-90 92 0
58 -90 -91 0
91 529 -544 0
-91 -529 0
-91 544 0
92 93 94 521 0
92 93 94 -547 0
-92 -94 0
-92 -93 0
-92 -521 547 0
93 526 535 0
-93 -526 0
-93 -535 0
94 532 -533 0
-94 -532 0
-94 533 0
95 96 97 0
95 96 517 0
95 96 524 0
-95 -96 0
-95 -97 -517 -524 0
96 529 -534 0
96 529 -530 -531 0
-96 -529 0
-96 530 534 0
-96 531 534 0
97 -525 -526 527 0
-97 525 0
-97 526 0
-97 -527 0
98 -99 -103 532 0
98 -99 102 -103 0
-98 103 0
-98 99 0
-98 -102 -532 0
-69 99 -568 0
-69 99 -100 534 0
69 -99 0
-99 -534 568 0
-99 100 568 0
100 -101 569 0
-100 -569 0
-100 101 0
101 563 564 0
101 -543 564 0
101 531 543 -564 0
-101 -531 -564 0
-101 -543 -564 0
-101 543 -563 564 0
-45 -71 102 0
-71 -101 102 0
71 -102 0
45 101 -102 0
72 89 103 -104 0
89 103 -104 532 0
-103 104 0
-89 -103 0
-72 -103 -532 0
58 104 105 -106 -568 0
-104 106 0
-104 -105 0
-104 568 0
-58 -104 0
105 -521 571 0
105 -571 588 0
105 -506 588 0
-105 521 -588 0
-105 -571 -588 0
-105 506 521 571 0
106 -559 -586 587 0
-106 559 0
-106 586 0
-106 -587 0
107 505 -587 0
107 -505 587 0
-107 -505 -587 0
-107 505 587 0
108 675 -676 0
-76 108 559 675 0
-108 -675 0
-108 -559 676 0
76 -108 676 0
109 -110 616 -675 0
-109 110 0
-109 675 0
-109 -616 0
-66 110 -111 121 -134 0
-110 134 0
66 -110 0
-110 111 0
-110 -121 0
111 112 113 114 -118 0
-111 118 0
-111 -114 0
-111 -112 0
-111 -113 0
-13 112 -504 0
11 -13 112 0
13 -112 0
-11 -112 504 0
-29 -32 113 0
-29 -35 113 -516 0
29 -113 0
32 35 -113 0
32 -113 516 0
114 -115 504 0
-114 -504 0
-114 115 0
115 -116 117 0
-115 116 0
-115 -117 0
-44 116 593 0
116 585 593 0
-116 -593 0
44 -116 -585 0
-44 52 117 592 0
-44 117 585 592 0
44 -117 0
-117 -592 0
-52 -117 -585 0
118 -119 -613 0
118 -119 -120 0
-118 119 0
-118 120 613 0
119 -594 0
-58 119 -585 0
-58 119 595 0
58 -119 594 0
-119 585 594 -595 0
-7 120 504 0
-120 -504 0
7 -120 0
-24 121 -122 0
121 128 -504 0
-24 121 -504 0
121 -122 128 0
24 -121 -128 0
-121 122 504 0
122 123 127 0
-14 122 123 -126 0
-122 -123 0
14 -122 -127 0
-122 126 -127 0
123 506 600 606 0
123 124 -506 600 -606 0
-123 -506 606 0
-123 -124 -606 0
-123 -600 0
-123 506 -606 0
124 -125 -506 -603 0
124 -125 506 -604 0
-124 125 0
-124 -506 603 0
-124 506 604 0
125 553 -601 0
125 -601 -602 0
-125 601 0
-125 -553 602 0
-36 -117 126 605 0
-36 126 594 605 0
36 -126 0
-126 -605 0
117 -126 -594 0
-124 127 -506 -600 0
-127 506 0
-127 600 0
124 -127 0
-119 128 -129 -131 -133 0
-128 133 0
119 -128 0
-128 131 0
-128 129 0
115 129 -594 0
115 129 -130 0
-115 -129 0
-129 130 594 0
-58 130 -585 0
130 585 595 0
-130 585 -595 0
58 -130 -585 0
131 132 -506 0
-70 131 132 0
-131 -132 0
70 -131 506 0
7 132 596 0
-132 -596 0
-7 -132 0
32 132 133 -504 506 0
-132 -133 0
-32 -133 0
-133 504 0
-133 -506 0
-67 113 -129 134 -135 0
-134 135 0
67 -134 0
129 -134 0
-113 -134 0
-72 -131 135 -136 0
117 -131 135 -136 0
-135 136 0
131 -135 0
72 -117 -135 0
130 132 136 -137 -138 0
-130 -136 0
-136 138 0
-136 137 0
-132 -136 0
-107 137 -613 0
-107 137 504 596 0
107 -137 0
-137 -596 613 0
-137 -504 613 0
-58 138 -139 0
138 -139 -594 0
-138 139 0
58 -138 594 0
139 -503 -591 -611 612 0
-139 611 0
-139 -612 0
-139 503 0
-139 591 0
140 -141 -166 639 -674 0
-140 -639 0
-140 166 0
-140 141 0
-140 674 0
10 -110 141 142 -163 0
-141 163 0
-10 -141 0
110 -141 0
-141 -142 0
26 142 -143 0
142 152 -502 0
26 142 -502 0
142 -143 152 0
-142 143 502 0
-26 -142 -152 0
143 144 151 0
13 143 144 -148 0
-143 -144 0
-13 -143 -151 0
-143 148 -151 0
-29 144 626 629 0
29 144 145 626 -629 0
-29 -144 -629 0
29 -144 -145 0
-144 -626 0
29 -144 629 0
-125 145 -146 0
125 -145 0
-145 146 0
146 -504 -627 0
146 -147 504 0
-146 147 504 0
-146 -504 627 0
147 -506 -603 0
147 506 -604 0
-147 506 604 0
-147 -506 603 0
-35 148 -149 628 0
-35 148 619 628 0
35 -148 0
-148 -628 0
-148 149 -619 0
149 150 610 617 0
-50 149 150 617 0
-149 -150 0
-149 -617 0
50 -149 -610 0
43 46 150 0
-46 -150 0
-43 -150 0
29 -145 151 -626 0
-151 626 0
-29 -151 0
145 -151 0
152 -153 -159 -160 -162 0
-152 162 0
-152 153 0
-152 160 0
-152 159 0
153 -154 158 0
-153 154 0
-153 -158 0
154 155 157 0
-149 154 155 0
-154 -155 0
149 -154 -157 0
155 156 619 0
-155 -619 0
-155 -156 0
-58 156 -610 0
156 610 621 0
-156 610 -621 0
58 -156 -610 0
-43 157 618 0
157 610 618 0
-157 -618 0
43 -157 -610 0
120 158 622 0
-158 -622 0
-120 -158 0
113 158 159 0
-113 -159 0
-158 -159 0
160 -619 0
-58 -156 160 0
-156 160 -161 0
156 -160 619 0
58 -160 161 619 0
-46 161 620 0
-161 -620 0
46 -161 0
-29 32 162 -502 0
-162 502 0
-32 -162 0
29 -162 0
31 163 -164 -636 0
-6 31 163 -164 0
-163 164 0
-31 -163 0
6 -163 636 0
-149 -160 164 0
-160 164 165 0
160 -164 0
149 -164 -165 0
-157 165 502 0
-165 -502 0
157 -165 0
10 -111 112 166 -167 0
111 -166 0
-10 -166 0
-112 -166 0
-166 167 0
31 -153 167 -168 -176 0
-167 176 0
153 -167 0
-167 168 0
-31 -167 0
149 -164 168 -170 0
-164 168 -169 -170 0
-168 170 0
164 -168 0
-149 -168 169 0
-116 169 504 0
-169 -504 0
116 -169 0
170 -171 -174 -619 0
-130 170 -171 -174 0
-170 174 0
-170 171 0
130 -170 619 0
156 171 -173 -636 0
156 171 -172 -173 0
-171 173 0
-156 -171 0
-171 172 636 0
172 502 622 0
-172 -502 0
-172 -622 0
173 -501 -616 -634 635 0
-173 634 0
-173 -635 0
-173 501 0
-173 616 0
174 175 -502 0
158 174 175 0
-174 -175 0
-158 -174 502 0
58 161 175 619 0
-175 -619 0
-161 -175 0
-58 -175 0
-154 -159 176 0
154 -176 0
159 -176 0
-4 177 -178 655 -673 0
-177 -655 0
-177 178 0
4 -177 0
-177 673 0
-61 178 179 -180 0
-61 178 -180 -187 0
61 -178 0
-178 180 0
-178 -179 187 0
-125 -146 179 502 0
-125 179 -502 -648 0
125 -179 0
-179 -502 648 0
146 -179 502 0
-40 -141 -166 180 -181 0
-180 181 0
141 -180 0
40 -180 0
166 -180 0
48 181 182 -183 0
-165 181 182 -183 0
-181 183 0
-181 -182 0
-48 165 -181 0
179 182 -500 0
-182 500 0
-179 -182 0
59 183 -184 -642 0
59 -156 183 -184 0
-183 184 0
-59 -183 0
156 -183 642 0
184 185 -186 -499 651 0
184 185 -186 499 -651 0
-184 186 0
-184 499 651 0
-184 -185 0
-184 -499 -651 0
-29 185 502 0
-185 -502 0
29 -185 0
186 -639 -645 -650 0
-186 639 0
-186 645 0
-186 650 0
187 188 -500 0
12 187 -500 0
-187 500 0
-12 -187 -188 0
34 -48 188 649 0
34 188 642 649 0
-34 -188 0
-188 -649 0
48 -188 -642 0
-5 -178 189 190 -194 0
-189 194 0
5 -189 0
178 -189 0
-189 -190 0
-179 190 498 0
-12 -179 190 -191 0
179 -190 0
-190 191 -498 0
12 -190 -498 0
34 191 -192 666 0
34 191 660 666 0
-34 -191 0
-191 -666 0
-191 192 -660 0
192 193 656 658 0
-49 192 193 656 0
-192 -656 0
-192 -193 0
49 -192 -658 0
42 193 -633 0
42 193 -657 0
-42 -193 0
-193 633 657 0
192 194 -195 200 0
-41 -192 194 -195 0
-194 195 0
41 -192 -194 0
192 -194 -200 0
31 195 -196 498 0
31 -179 195 -196 0
-195 196 0
-31 -195 0
179 -195 -498 0
33 196 -197 -198 -199 0
-33 -196 0
-196 199 0
-196 198 0
-196 197 0
197 -496 658 -662 0
58 197 -496 -658 0
-197 496 0
-58 -197 -658 0
-197 658 662 0
198 -667 668 -669 672 0
-198 669 0
-198 -672 0
-198 667 0
-198 -668 0
199 -497 -655 -660 -663 0
-199 663 0
-199 497 0
-199 660 0
-199 655 0
-42 200 659 0
200 658 659 0
-200 -659 0
42 -200 -658 0
201 -202 -687 0
201 207 226 -687 0
-201 687 0
-201 202 -226 0
-201 202 -207 0
202 -495 695 0
202 -203 493 495 0
202 -493 695 0
-202 -493 -695 0
-202 203 493 495 0
-202 -495 -695 0
-33 203 525 0
203 -204 525 0
-203 -525 0
33 -203 204 0
-29 204 -205 206 0
204 -205 206 675 0
-204 205 0
-204 -206 0
29 -204 -675 0
205 496 673 674 0
-205 -496 0
-205 -674 0
-205 -673 0
206 -506 -676 0
-206 506 0
-206 676 0
207 -208 493 0
207 -220 -493 0
-207 220 -493 0
-207 208 493 0
208 -209 -495 0
208 495 690 0
-208 495 -690 0
-208 209 -495 0
209 210 690 0
209 -210 693 0
-209 -210 -693 0
-209 210 -690 0
210 -211 -216 0
210 -216 694 0
-210 216 0
-210 211 -694 0
205 211 -212 0
-205 211 -214 0
-205 211 -213 0
205 -211 212 0
-205 -211 213 214 0
29 -30 212 0
-29 212 502 575 0
-30 212 -502 0
29 30 -212 0
30 -212 -502 0
-29 -212 502 -575 0
206 213 575 675 0
-30 -206 213 675 0
-213 -675 0
206 -213 -575 0
30 -206 -213 0
214 -215 -675 0
-214 675 0
-214 215 0
-29 215 575 0
29 -30 215 0
-29 -215 -575 0
29 30 -215 0
216 692 695 0
-203 216 217 0
216 217 695 0
-203 216 692 0
-216 -217 -692 0
203 -216 -695 0
217 218 -577 0
-217 577 0
-217 -218 0
204 218 219 0
-204 -218 0
-218 -219 0
-8 205 219 506 0
-219 -506 0
8 -219 0
-205 -219 0
-208 220 221 0
220 -221 720 0
-220 -221 -720 0
208 -220 221 0
221 -222 -223 0
221 -223 694 0
-221 223 0
-221 222 -694 0
-211 222 495 0
-222 -495 0
211 -222 0
223 692 695 0
223 -224 -225 0
223 -225 692 0
223 -224 695 0
-223 224 -692 0
-223 225 -695 0
224 -495 692 0
-218 224 495 0
224 495 577 0
-224 -495 -692 0
218 -224 495 -577 0
225 -495 695 0
-203 225 495 0
-225 -495 -695 0
203 -225 495 0
226 493 495 691 0
-226 -493 0
-226 -691 0
-226 -495 0
227 236 -370 0
207 227 -228 -370 0
-207 227 228 -370 0
-227 370 0
207 -227 228 -236 0
-207 -227 -228 -236 0
228 229 231 0
228 -231 819 0
-228 -229 231 0
-228 -231 -819 0
229 -769 -790 0
229 -230 -790 -791 0
-229 790 0
-229 769 791 0
-229 230 769 0
230 -762 -763 0
-230 762 0
-230 763 0
231 770 820 0
231 -232 770 0
-231 -770 0
-231 232 -820 0
232 233 823 0
232 233 824 0
-232 -233 0
-232 -823 -824 0
233 234 -235 770 820 0
-233 235 0
-233 -234 0
-233 -770 0
-233 -820 0
234 771 780 -827 0
-234 827 0
-234 -780 0
-234 -771 0
235 -821 823 824 0
-235 821 0
-235 -824 0
-235 -823 0
236 237 244 268 -278 0
236 237 -244 -268 -278 0
-236 278 0
-236 -244 268 0
-236 -237 0
-236 244 -268 0
237 -238 830 0
237 238 -830 0
-237 -238 -830 0
-237 238 830 0
238 -493 -725 0
238 -239 493 0
-238 239 493 0
-238 -493 725 0
239 240 -701 0
239 240 495 0
-239 -240 0
-239 -495 701 0
240 241 495 0
-240 -495 0
-240 -241 0
-205 241 -242 0
-34 205 241 0
-205 -241 242 0
34 205 -241 0
35 242 -675 0
242 -243 675 0
-35 -242 -675 0
-242 243 675 0
-206 243 -583 0
37 206 243 0
-37 206 -243 0
-206 -243 583 0
244 254 728 735 0
244 -245 254 735 0
-244 -254 0
-244 -735 0
-244 245 -728 0
245 -249 493 0
245 -493 728 0
245 -246 493 0
-245 -493 -728 0
-245 246 249 493 0
-49 246 247 495 0
-205 246 247 495 0
-246 -495 0
-246 -247 0
49 205 -246 0
50 -205 247 -675 0
-205 247 -248 675 0
205 -247 0
-247 248 675 0
-50 -247 -675 0
-206 248 -585 0
53 206 248 0
-53 206 -248 0
-206 -248 585 0
249 250 -495 0
-249 495 0
-249 -250 0
250 -496 -704 0
250 -253 496 0
250 -251 496 0
-250 -496 704 0
-250 251 253 496 0
251 -633 673 -674 0
251 252 673 674 0
-251 -673 0
-251 -252 674 0
-251 633 -674 0
252 610 -675 0
252 585 675 -676 0
-252 -610 -675 0
-252 -585 675 0
-252 675 676 0
253 -658 -673 0
-253 658 0
-253 673 0
254 255 256 0
-254 -255 0
-254 -256 0
250 255 727 0
-255 -727 0
-250 -255 0
256 -257 493 0
-256 -493 0
-256 257 0
257 261 -495 0
257 -258 261 0
-257 -261 0
-257 258 495 0
-42 258 259 495 0
-205 258 259 495 0
-258 -495 0
-258 -259 0
42 205 -258 0
43 -205 259 260 0
-205 259 260 675 0
205 -259 0
-259 -260 0
-43 -259 -675 0
-45 206 260 675 0
-260 -675 0
45 -260 0
-206 -260 0
258 261 -262 0
-261 262 0
-258 -261 0
262 263 -658 0
262 263 -703 0
262 263 496 0
-262 -263 0
-262 -496 658 703 0
263 -265 496 673 0
263 -264 496 -673 0
-263 -496 0
-263 264 -673 0
-263 265 673 0
264 633 657 0
-264 -633 0
-264 -657 0
-47 265 -674 0
265 -267 674 0
265 -266 674 0
47 -265 -674 0
-265 266 267 674 0
-101 266 675 676 0
101 -266 0
-266 -676 0
-266 -675 0
-46 267 -675 0
-267 675 0
46 -267 0
268 -269 -276 -277 0
268 -270 -276 -277 0
-268 277 0
-268 276 0
-268 269 270 0
269 -788 807 0
269 788 806 0
-269 788 -806 0
-269 -788 -807 0
-269 270 272 -274 0
270 -271 272 -274 0
-270 274 0
-270 -272 0
269 -270 271 0
271 808 809 0
271 -788 809 0
271 776 788 -809 0
-271 -776 -809 0
-271 -788 -809 0
-271 788 -808 809 0
272 -273 -777 788 0
-272 777 0
-272 -788 0
-272 273 0
273 807 809 810 -811 0
-273 811 0
-273 -810 0
-273 -807 0
-273 -809 0
274 275 788 805 0
274 275 805 810 0
-274 -275 0
-274 -805 0
-274 -788 -810 0
275 -807 -809 0
-275 807 0
-275 809 0
-271 276 814 0
-276 -814 0
271 -276 0
269 277 834 0
277 833 834 0
-277 -834 0
-269 -277 -833 0
245 278 279 -282 -834 0
-245 278 279 -282 834 0
-278 282 0
245 -278 834 0
-278 -279 0
-245 -278 -834 0
279 -280 -281 0
279 280 281 0
-279 280 -281 0
-279 -280 281 0
-232 280 820 0
-232 280 770 0
232 -280 0
-280 -770 -820 0
281 -493 -694 0
222 281 -694 0
222 281 493 495 0
-281 -493 694 0
-222 -281 493 0
-281 -495 694 0
282 -283 -284 -728 0
282 -283 -284 -736 0
-282 284 0
-282 283 0
-282 728 736 0
256 283 493 0
255 256 283 0
-256 -283 0
-255 -283 -493 0
276 284 285 -286 -290 0
-276 284 -285 -286 -290 0
-284 290 0
-276 -284 285 0
-284 286 0
276 -284 -285 0
-255 285 738 0
-285 -738 0
255 -285 0
202 -228 286 -287 0
-286 287 0
228 -286 0
-202 -286 0
287 -288 289 -493 0
-224 287 288 -289 0
287 288 -289 -493 0
-224 287 -288 289 0
-287 288 289 0
-287 -288 -289 0
224 -287 493 0
-30 288 751 0
-288 -751 0
30 -288 0
289 -824 -836 0
289 824 -835 836 0
-289 835 836 0
-289 824 -836 0
-289 -824 836 0
290 -291 -308 -366 798 0
290 -291 -308 366 -798 0
-290 291 0
-290 -366 -798 0
-290 308 0
-290 366 798 0
280 291 -292 302 -694 0
-280 291 -292 302 694 0
-291 -302 0
280 -291 694 0
-291 292 0
-280 -291 -694 0
292 293 296 -297 -301 0
-292 -293 0
-292 301 0
-292 297 0
-292 -296 0
293 -294 -295 0
293 294 682 0
-293 -294 295 0
-293 294 -682 0
294 493 495 0
-294 -493 0
-294 -495 0
218 295 551 0
-295 -551 0
-218 -295 0
218 -294 296 0
294 -296 0
-218 -296 0
297 298 798 0
297 298 -797 0
297 298 796 0
-297 -298 0
-297 -796 797 -798 0
298 299 759 -761 0
298 299 -761 781 0
-298 761 0
-298 -299 0
-298 -759 -781 0
299 -759 -782 0
299 -300 -782 0
-299 782 0
-299 300 759 0
300 760 -781 783 0
300 760 -781 784 0
-300 -760 0
-300 781 0
-300 -783 -784 0
269 270 301 0
-270 301 777 0
270 301 -812 0
-270 -301 -777 0
-269 270 -301 812 0
218 302 -303 304 -305 0
-302 303 0
-302 -304 0
-218 -302 0
-302 305 0
-296 303 538 0
-303 -538 0
296 -303 0
304 -537 -539 0
304 515 -537 -549 0
-304 537 0
-304 -515 539 0
-304 539 549 0
305 306 307 538 0
305 -306 515 538 0
-305 -538 0
-305 306 -307 0
-305 -306 -515 0
306 -516 -550 0
-306 516 0
-306 550 0
307 -539 -549 0
-307 539 0
-307 549 0
308 -309 -312 358 -361 0
-308 361 0
-308 309 0
-308 312 0
-308 -358 0
296 309 310 0
309 310 -538 745 0
-309 -310 0
-296 -309 -745 0
-296 -309 538 0
-294 310 -311 0
294 -310 0
-310 311 0
218 311 -516 0
-311 516 0
-218 -311 0
312 -313 -327 -338 -348 0
-312 348 0
-312 313 0
-312 338 0
-312 327 0
313 -314 -316 -319 -325 0
-313 325 0
-313 314 0
-313 319 0
-313 316 0
314 -315 0
314 -774 -813 0
314 789 -813 0
-314 315 813 0
-314 315 774 -789 0
315 787 788 0
315 775 -788 0
-315 -787 788 0
-315 -775 -788 0
316 318 769 0
316 317 318 0
316 318 762 0
-316 -318 0
-316 -317 -762 -769 0
317 -770 -771 772 0
-317 770 0
-317 771 0
-317 -772 0
318 -766 816 0
318 -766 792 0
318 -766 801 0
-318 766 0
-318 -792 -801 -816 0
58 315 319 -320 -322 0
-58 -315 319 -320 -322 0
-319 322 0
-58 315 -319 0
-319 320 0
58 -315 -319 0
320 -321 -749 0
320 -321 -728 0
-320 321 0
-320 728 749 0
321 -582 792 0
321 -801 827 0
321 792 827 0
321 -582 -801 0
-321 -792 801 0
-321 582 -827 0
322 323 -324 692 0
322 323 -324 493 0
-322 324 0
-322 -323 0
-322 -493 -692 0
323 -684 798 0
-323 684 0
-323 -798 0
324 -774 778 0
324 -777 779 0
324 -774 -777 0
324 778 779 0
-324 774 -779 0
-324 777 -778 0
229 -315 325 0
325 326 770 0
229 325 326 0
-315 325 770 0
-229 -325 -770 0
315 -325 -326 0
-58 326 -728 0
326 728 739 0
-326 728 -739 0
58 -326 -728 0
327 -329 -333 777 0
327 328 -329 -333 0
-327 333 0
-327 329 0
-327 -328 -777 0
-269 328 812 0
-328 -812 0
269 -328 0
329 330 -331 750 834 0
329 330 -331 -750 -834 0
-329 -330 0
-329 750 -834 0
-329 331 0
-329 -750 834 0
330 762 -770 773 0
330 762 769 -770 0
-330 -762 0
-330 770 0
-330 -769 -773 0
331 332 775 0
331 332 -774 0
331 332 776 0
-331 -332 0
-331 774 -775 -776 0
332 759 -760 -761 0
-332 761 0
-332 760 0
-332 -759 0
333 334 766 0
333 334 -336 -337 0
-333 -334 0
-333 337 -766 0
-333 336 -766 0
334 -335 -754 0
334 -754 756 -758 0
-334 754 0
-334 335 -756 0
-334 335 758 0
335 -753 755 -756 757 0
-335 756 0
-335 -757 0
-335 753 0
-335 -755 0
336 -765 -785 0
336 764 -785 0
-336 785 0
-336 -764 765 0
337 -767 0
337 768 -786 0
-337 767 -768 0
-337 767 786 0
338 -339 -344 -346 -347 0
-338 347 0
-338 339 0
-338 346 0
-338 344 0
339 -340 -341 534 779 0
339 -340 -341 -534 -779 0
-339 341 0
-339 -534 779 0
-339 340 0
-339 534 -779 0
340 -602 743 0
340 -829 832 0
340 743 832 0
340 -602 -829 0
-340 -743 829 0
-340 602 -832 0
341 342 -343 779 0
341 342 -343 -813 0
-341 343 0
-341 -342 0
-341 -779 813 0
342 771 780 0
-342 -771 0
-342 -780 0
343 582 798 0
343 -684 -827 0
343 582 -684 0
343 798 -827 0
-343 -582 827 0
-343 684 -798 0
344 -345 -737 -813 0
344 -345 737 813 0
-344 345 0
-344 -737 813 0
-344 737 -813 0
345 -752 -828 0
345 681 -800 0
345 681 -752 0
345 -800 -828 0
-345 -681 828 0
-345 752 800 0
346 602 828 0
346 -681 -832 0
346 602 -681 0
346 828 -832 0
-346 -602 832 0
-346 681 -828 0
347 -743 -771 0
347 -762 829 0
347 -743 -762 0
347 -771 829 0
-347 743 -829 0
-347 762 771 0
348 -349 -353 -356 -357 0
-348 357 0
-348 349 0
-348 356 0
-348 353 0
226 349 350 -351 0
226 349 -351 -769 0
-349 351 0
-226 -349 0
-349 -350 769 0
350 762 -770 0
-350 -762 0
-350 770 0
351 352 -799 800 -804 0
-351 804 0
-351 -352 0
-351 799 0
-351 -800 0
-294 352 683 0
-352 -683 0
294 -352 0
353 -354 355 -763 0
353 -354 355 762 0
-353 354 0
-353 -355 0
-353 -762 763 0
354 -686 -687 -688 706 0
-354 688 0
-354 -706 0
-354 686 0
-354 687 0
355 -752 -800 0
-355 752 0
-355 800 0
356 -699 -740 748 -779 0
-356 779 0
-356 699 0
-356 740 0
-356 -748 0
357 -682 -685 692 -695 0
-357 695 0
-357 682 0
-357 685 0
-357 -692 0
-294 358 359 0
294 -358 0
-358 -359 0
-205 359 -360 0
6 205 359 0
-205 -359 360 0
-6 205 -359 0
120 360 -675 0
360 -521 675 0
-206 360 675 0
-120 -360 -675 0
206 -360 521 675 0
361 362 363 365 831 0
361 362 -363 365 -831 0
-361 -362 0
-361 363 -831 0
-361 -365 0
-361 -363 831 0
-315 326 362 0
315 -362 0
-326 -362 0
363 -493 -746 0
363 -364 493 0
-363 364 493 0
-363 -493 746 0
364 495 -697 0
364 -495 -722 0
-364 -495 722 0
-364 495 697 0
276 315 365 813 0
-365 -813 0
-315 -365 0
-276 -365 0
-294 366 -367 0
294 366 684 0
-294 366 -369 0
294 -366 -684 0
-294 -366 367 369 0
204 367 368 553 0
367 -368 -506 553 0
-367 -553 0
-367 -368 506 0
-204 -367 368 0
-8 205 368 0
8 -368 0
-205 -368 0
218 369 747 0
-369 -747 0
-218 -369 0
370 -389 -396 0
-220 370 -371 -396 0
-370 396 0
220 -370 389 0
-370 371 389 0
371 -372 -379 383 -385 0
-371 385 0
-371 372 0
-371 379 0
-371 -383 0
372 -373 -378 0
372 -373 377 0
-372 373 0
-372 -377 378 0
373 374 -714 0
373 374 375 -376 0
-373 -374 0
-373 376 714 0
-373 -375 714 0
374 687 688 0
-374 -687 0
-374 -688 0
58 375 -715 0
58 -262 375 0
-58 -375 0
262 -375 715 0
-58 -250 376 0
250 376 716 0
250 -376 -716 0
58 -250 -376 0
250 377 713 0
-257 377 713 0
-377 -713 0
-250 257 -377 0
-246 261 378 712 0
250 261 378 712 0
-378 -712 0
-261 -378 0
246 -250 -378 0
379 380 381 0
379 380 -495 0
-379 -380 0
-379 -381 495 0
380 685 -686 0
-380 -685 0
-380 686 0
295 381 683 -684 0
295 381 -382 -683 0
-295 -381 0
-381 382 -683 0
-381 683 684 0
382 602 -681 682 0
-382 -602 0
-382 681 0
-382 -682 0
383 384 717 0
-383 -717 0
-383 -384 0
359 384 495 0
-384 -495 0
-359 -384 0
385 -386 -387 388 -493 0
-385 387 0
-385 -388 0
-385 493 0
-385 386 0
218 386 495 0
-386 -495 0
-218 -386 0
374 387 -685 -686 0
374 387 686 -687 0
-374 -387 0
-387 685 -686 0
-387 686 687 0
388 686 -695 0
-388 -686 0
-388 695 0
389 390 -395 493 0
389 -390 -392 493 0
-389 -493 0
-389 -390 392 0
-389 390 395 0
-364 386 390 -391 0
364 -390 0
-386 -390 0
-390 391 0
391 -602 -681 0
391 -681 684 0
-391 681 0
-391 602 -684 0
392 394 -721 0
208 392 393 -721 0
-392 721 0
-208 -392 -394 0
-392 -393 -394 0
393 685 686 699 0
-393 -685 0
-393 -699 0
-393 -686 0
239 -378 394 723 0
239 394 714 723 0
-239 -394 0
-394 -723 0
378 -394 -714 0
386 395 721 -724 0
-386 395 721 724 0
-395 -721 0
-386 -395 -724 0
386 -395 724 0
396 397 -398 0
-207 396 -398 0
-202 396 -398 0
-396 398 0
202 207 -396 -397 0
397 -686 -687 692 0
-397 686 0
-397 687 0
-397 -692 0
-225 398 399 -452 0
398 399 -450 -452 0
-398 452 0
-398 -399 0
225 -398 450 0
399 426 -495 0
399 400 402 426 0
-399 -426 0
-399 -400 495 0
-399 -402 495 0
218 400 696 700 0
-218 400 401 696 -700 0
218 -400 -700 0
-218 -400 700 0
-400 -696 0
-400 -401 -700 0
401 -602 -681 -697 0
401 -681 684 -697 0
-401 697 0
-401 681 0
-401 602 -684 0
-218 -401 402 403 -696 0
401 -402 0
-402 -403 0
-402 696 0
218 -402 0
241 403 -404 -425 0
241 403 420 -425 0
-241 -403 0
-403 425 0
-403 404 -420 0
-192 404 -496 0
404 -405 496 0
-404 405 496 0
192 -404 -496 0
-48 405 -673 0
405 -412 673 0
405 -406 673 0
48 -405 -673 0
-405 406 412 673 0
406 411 502 -674 0
406 -407 411 -674 0
-406 674 0
-406 -411 0
-406 407 -502 0
-47 407 408 0
-161 407 408 633 0
-407 -408 0
47 -407 -633 0
47 161 -407 0
408 -409 -631 0
-408 631 0
-408 409 0
-50 409 410 0
409 410 633 0
-409 -410 0
50 -409 -633 0
43 47 410 0
-43 -410 0
-47 -410 0
149 409 411 0
149 411 502 0
-149 -411 0
-409 -411 -502 0
412 -413 674 0
412 417 -419 674 0
-412 -674 0
-412 413 419 0
-412 413 -417 0
413 414 533 675 0
413 414 675 -676 0
-413 -414 0
-413 -675 0
-413 -533 676 0
414 415 -506 -676 0
102 414 415 -676 0
-414 676 0
-414 -415 0
-102 -414 506 0
-45 -100 415 -416 0
-100 -102 415 -416 0
-415 416 0
100 -415 0
45 102 -415 0
45 416 585 0
416 -506 584 585 0
-416 -585 0
-45 -416 506 0
-45 -416 -584 0
46 417 -504 0
417 418 -504 -608 0
-417 504 0
-46 -417 608 0
-46 -417 -418 0
51 418 -610 0
-418 610 0
-51 -418 0
-117 419 -675 0
418 419 -504 -675 0
-419 675 0
117 -418 -419 0
117 -419 504 0
420 -496 -660 0
420 -421 496 0
-420 421 496 0
-420 -496 660 0
421 -642 -673 0
421 -422 673 0
-421 642 -673 0
-421 422 673 0
422 -619 -674 0
422 -423 674 0
-422 619 -674 0
-422 423 674 0
423 -594 -675 0
423 -424 675 0
-423 594 -675 0
-423 424 675 0
424 -568 -676 0
424 -529 676 0
-424 529 676 0
-424 568 -676 0
-393 425 698 0
425 690 698 0
-425 -698 0
393 -425 -690 0
-209 426 427 434 -440 0
-426 440 0
-426 -434 0
209 -426 0
-426 -427 0
404 427 428 0
-404 -427 0
-427 -428 0
200 428 -496 0
428 -429 496 0
-200 -428 -496 0
-428 429 496 0
41 429 -673 0
429 -430 673 0
-41 -429 -673 0
-429 430 673 0
165 430 -674 0
430 431 433 674 0
-165 -430 -674 0
-430 -433 674 0
-430 -431 674 0
431 -432 675 -676 0
431 532 675 676 0
-431 -675 0
-431 -532 676 0
-431 432 -676 0
-44 432 567 0
-432 -567 0
44 -432 0
-169 433 -675 0
-433 675 0
169 -433 0
420 434 435 0
-420 -434 0
-434 -435 0
197 435 -496 0
197 435 -436 0
-197 -435 0
-435 436 496 0
-59 436 -673 0
436 -437 673 0
-436 437 673 0
59 -436 -673 0
-156 437 -674 0
437 -438 674 0
-437 438 674 0
156 -437 -674 0
-130 438 -675 0
438 -439 675 0
-438 439 675 0
130 -438 -675 0
-58 439 -676 0
439 534 676 0
58 -439 -676 0
-439 -534 676 0
-58 440 -446 0
-420 440 -446 0
440 -441 -446 0
-440 446 0
58 420 -440 441 0
441 442 496 0
-264 441 442 661 0
-441 -442 0
264 -441 -496 0
-441 -496 -661 0
442 -443 496 673 0
60 442 496 -673 0
-442 -496 0
-60 -442 -673 0
-442 443 673 0
443 444 674 0
161 443 444 0
-443 -444 0
-161 -443 -674 0
444 -445 544 676 0
-100 444 -445 -676 0
-444 445 0
100 -444 -676 0
-444 -544 676 0
445 674 675 0
-445 -674 0
-445 -675 0
218 381 446 -447 -449 0
-218 -446 0
-446 449 0
-446 447 0
-381 -446 0
380 447 448 0
-380 -447 0
-447 -448 0
-359 448 678 0
-448 -678 0
359 -448 0
374 -387 388 449 -495 0
387 -449 0
-388 -449 0
-449 495 0
-374 -449 0
-208 450 -686 0
397 450 -686 0
208 397 450 451 0
-208 -450 686 0
208 -397 -450 0
-450 -451 686 0
451 495 691 0
-451 -495 0
-451 -691 0
-203 427 452 -456 0
427 452 -453 -456 0
-452 456 0
-427 -452 0
203 -452 453 0
-205 453 454 -686 0
-12 453 454 -686 0
-453 686 0
-453 -454 0
12 205 -453 0
-205 454 -455 675 0
-13 -205 454 -675 0
205 -454 0
13 -454 -675 0
-454 455 675 0
-15 455 676 0
14 455 -676 0
-14 -455 -676 0
15 -455 676 0
-238 456 -457 -490 0
310 456 -457 -490 0
-456 490 0
-456 457 0
238 -310 -456 0
-378 457 -459 -489 0
457 458 -459 -489 0
-457 489 0
-457 459 0
378 -457 -458 0
-377 458 493 0
-458 -493 0
377 -458 0
240 -373 459 -460 0
311 -373 459 -460 0
-459 460 0
373 -459 0
-240 -311 -459 0
-241 460 -461 488 0
311 460 -461 488 0
-460 461 0
-460 -488 0
241 -311 -460 0
435 461 -462 -469 -471 0
-435 -461 0
-461 471 0
-461 469 0
-461 462 0
376 -420 462 463 464 0
420 -462 0
-462 -464 0
-376 -462 0
-462 -463 0
358 -383 463 0
358 463 740 0
-358 -463 0
383 -463 -740 0
-359 464 -496 669 0
-359 464 -465 496 0
359 -464 0
-464 465 496 0
-464 -496 -669 0
465 652 -673 0
465 -466 673 0
-465 -652 -673 0
-465 466 673 0
466 636 -674 0
466 -467 674 0
-466 -636 -674 0
-466 467 674 0
467 613 -675 0
467 -468 675 0
-467 -613 -675 0
-467 468 675 0
468 556 676 0
468 588 -676 0
-468 -588 -676 0
-468 -556 676 0
-379 469 470 -493 0
-379 383 469 470 0
379 -469 0
-469 -470 0
-383 -469 493 0
293 352 -382 470 0
293 -352 470 -684 0
-293 -470 0
352 382 -470 0
-352 -470 684 0
471 -472 -473 -708 0
-384 471 -472 -473 0
-471 473 0
-471 472 0
384 -471 708 0
-358 -447 472 0
-447 472 -731 0
447 -472 0
358 -472 731 0
381 448 473 -474 -479 0
-381 -473 0
-473 479 0
-473 474 0
-448 -473 0
474 -475 -476 0
474 -476 -690 -691 0
-474 476 0
-474 475 690 0
-474 475 691 0
218 475 689 0
16 218 475 528 0
-218 -475 0
-16 -475 -689 0
-475 -528 -689 0
-203 476 478 0
476 -477 478 0
-476 -478 0
203 -476 477 0
397 477 -686 0
477 -686 690 0
397 477 -690 -691 0
-477 686 690 0
-397 -477 -690 0
-477 686 691 0
218 478 -551 552 -553 0
-478 553 0
-218 -478 0
-478 551 0
-478 -552 0
-296 479 -480 -737 0
-296 -326 479 -480 0
-479 480 0
296 -479 0
326 -479 737 0
480 -481 -484 -485 -486 0
-480 486 0
-480 481 0
-480 485 0
-480 484 0
481 -482 -731 0
481 -482 493 717 0
-481 482 0
-481 -717 731 0
-481 -493 731 0
482 483 -708 0
482 483 495 678 0
-482 -483 0
-482 -678 708 0
-482 -495 708 0
483 -492 -730 0
483 492 730 0
-483 492 -730 0
-483 -492 730 0
380 484 494 -707 0
380 484 -494 707 0
-380 -484 0
-484 494 707 0
-484 -494 -707 0
-354 374 485 677 -685 0
-485 -677 0
-374 -485 0
354 -485 0
-485 685 0
486 -487 -729 730 -734 0
-486 487 0
-486 729 0
-486 734 0
-486 -730 0
487 -705 707 -711 -714 0
-487 714 0
-487 705 0
-487 711 0
-487 -707 0
376 488 737 0
58 285 488 737 0
-488 -737 0
-58 -376 -488 0
-285 -376 -488 0
-372 378 489 0
-372 428 489 495 0
372 -489 0
-378 -428 -489 0
-378 -489 -495 0
-244 -458 490 0
244 490 491 0
244 -490 -491 0
-244 458 -490 0
283 491 736 0
491 728 736 0
-491 -736 0
-283 -491 -728 0
1 2 0
-1 -2 0
837 0

